17
t-pentyl chloride (2-chloro-2-methylbutane)
C      0.000000   0.000000   0.000000
Cl     1.852300   0.000000   0.000000
C     -0.542100   1.385200   0.000000
C     -0.542100  -0.781200   1.210400
C     -0.542100  -0.604000  -1.326800
C     -1.999200   1.612000   0.321400
H     -2.381200   2.563100  -0.054200
H     -2.549200   0.793100  -0.143200
H     -2.148100   1.583200   1.403100
H     -0.021200   2.138400  -0.589100
H     -0.342100  -0.281200   2.241200
H     -0.089100  -1.773100   1.205400
H     -1.621400  -0.901200   1.103200
H     -0.081200  -1.583200  -1.423100
H     -0.312400  -0.041200  -2.228100
H     -1.629100  -0.732400  -1.305400
H     -0.041200   1.563100   0.941200