18
t-pentyl alcohol (2-methyl-2-butanol)
C      0.032100   0.041200   0.011400
O      1.442100  -0.089100  -0.124200
C     -0.541200   1.411400  -0.189200
C     -0.521400  -0.864100   1.121400
C     -0.501200  -0.511400  -1.312100
C     -1.992100   1.601200   0.198100
H      1.782400   0.421400  -0.871200
H     -2.381200   2.551200  -0.164100
H     -2.541400   0.791200  -0.281400
H     -2.121400   1.564100   1.281400
H     -0.012400   2.181200  -0.751200
H     -0.291200  -0.421400   2.091200
H     -0.071200  -1.851400   1.091200
H     -1.601400  -0.981200   1.031200
H     -0.041200  -1.481200  -1.451400
H     -0.251400   0.111400  -2.181200
H     -1.591200  -0.641200  -1.281400
H     -0.041200   1.541200   0.781200
